qe/outputs/qe/qe_queries_wdomain/T=5,eliminate=[I_0,I_1,I_2,I_3,I_4,L_1,L_2,L_3,L_4,C].smt2
; benchmark generated from python API
(set-info :status unknown)
(declare-fun A_0 () Real)
(declare-fun B () Real)
(declare-fun S_1 () Real)
(declare-fun S_3 () Real)
(declare-fun A_3 () Real)
(declare-fun A_1 () Real)
(declare-fun S_2 () Real)
(declare-fun A_4 () Real)
(declare-fun S_4 () Real)
(declare-fun S_0 () Real)
(declare-fun A_2 () Real)
(declare-fun L_0 () Real)
(assert
 (let (($x2272 (<= (+ (* (- 1.0) A_3) S_3 (* (- 1.0) S_1) (* (- 1.0) B) A_0) 0.0)))
 (let (($x4966 (<= (+ (* (- 1.0) A_3) S_3 (* (- 1.0) S_2) (* (- 1.0) B) A_1) 0.0)))
 (let (($x1961 (<= (+ S_4 (* (- 1.0) A_4) (* (- 1.0) S_1) (* (- 1.0) B) A_0) 0.0)))
 (let (($x5045 (<= (+ S_4 (* (- 1.0) A_4) (* (- 1.0) S_2) (* (- 1.0) B) A_1) 0.0)))
 (let (($x2176 (<= (+ (* (- 1.0) A_2) S_2 (* (- 1.0) S_1) (* (- 1.0) B) A_0) 0.0)))
 (let (($x2580 (<= (+ S_4 (* (- 1.0) A_4) (* (- 1.0) S_3) (* (- 1.0) B) A_2) 0.0)))
 (let (($x842 (not (<= B 0.0))))
 (let (($x2860 (<= (+ (* (- 1.0) A_3) S_4 A_1 (* (- 1.0) S_3)) 0.0)))
 (let (($x2355 (<= (+ A_2 (* (- 1.0) S_3) (* (- 1.0) A_1) S_1) 0.0)))
 (let ((?x1446 (* (- 1.0) S_2)))
 (let ((?x1445 (* (- (/ 3.0 4.0)) L_0)))
 (let ((?x1444 (* (/ 3.0 4.0) A_0)))
 (let ((?x1443 (* (/ 1.0 4.0) S_4)))
 (let (($x1448 (<= (+ ?x1443 ?x1444 ?x1445 ?x1446) 0.0)))
 (let (($x3293 (<= (+ A_2 (* (- 1.0) S_3) (* (- 1.0) L_0)) 0.0)))
 (let (($x2436 (<= (+ A_2 (* (- 1.0) S_3) S_0 B (* (- 1.0) A_0)) 0.0)))
 (let ((?x853 (* (- 1.0) B)))
 (let ((?x1454 (* (- 1.0) S_1)))
 (let ((?x813 (* (- 1.0) L_0)))
 (let ((?x3315 (* 2.0 A_0)))
 (let ((?x843 (* (- 1.0) A_3)))
 (let (($x13914 (<= (+ ?x843 S_4 ?x3315 ?x1446 ?x813 ?x1454 ?x853) 0.0)))
 (let ((?x1365 (* (- (/ 1.0 2.0)) L_0)))
 (let ((?x2558 (* (- (/ 1.0 2.0)) S_3)))
 (let ((?x2585 (* (/ 3.0 2.0) A_0)))
 (let (($x37629 (<= (+ ?x843 S_4 ?x2585 ?x2558 ?x1365 ?x1454 ?x853) 0.0)))
 (let ((?x3576 (* (- (/ 1.0 2.0)) A_1)))
 (let ((?x3579 (* (/ 1.0 2.0) B)))
 (let ((?x1382 (* (/ 1.0 2.0) A_0)))
 (let ((?x1360 (* (- 1.0) S_3)))
 (let ((?x1433 (* (/ 1.0 2.0) S_4)))
 (let ((?x3458 (* (- (/ 1.0 2.0)) A_3)))
 (let (($x2815 (<= (+ ?x3458 ?x1433 A_2 ?x1360 ?x1382 ?x1365 ?x3579 ?x3576) 0.0)))
 (let (($x13952 (<= (+ ?x843 S_4 A_2 ?x1360 A_0 ?x1446 ?x813) 0.0)))
 (let (($x3100 (<= (+ A_1 ?x1446 ?x813) 0.0)))
 (let (($x2768 (<= (+ ?x843 S_4 ?x1360 ?x853 A_1) 0.0)))
 (let (($x2459 (<= (+ A_1 ?x1446 S_0 B (* (- 1.0) A_0)) 0.0)))
 (let (($x9066 (<= (+ (* (- 1.0) A_2) S_3 A_0 ?x1446) 0.0)))
 (let (($x2244 (<= (+ ?x843 S_3 A_1 ?x1446) 0.0)))
 (let (($x41812 (<= (+ ?x843 S_4 ?x1382 ?x2558 (* (/ 1.0 2.0) L_0)) 0.0)))
 (let (($x6594 (<= (+ A_3 (* (- 1.0) S_4) S_1 B (* (- 1.0) A_1)) 0.0)))
 (let (($x4846 (<= (+ (* (- 1.0) A_0) L_0 S_1 A_1 (* (- 1.0) A_2)) 0.0)))
 (let (($x4387 (<= (+ (* (- (/ 1.0 3.0)) S_4) (* (- (/ 2.0 3.0)) A_0) (* (/ 2.0 3.0) L_0) S_1) 0.0)))
 (let (($x3109 (<= (+ A_3 (* (- 1.0) S_4) ?x813) 0.0)))
 (let (($x2462 (<= (+ A_3 (* (- 1.0) S_4) S_0 B (* (- 1.0) A_0)) 0.0)))
 (let (($x141077 (or $x2462 $x3109 $x4387 (not (<= (+ A_3 A_0 ?x813 ?x1454 (* (- 1.0) A_2)) 0.0)) $x4846 $x6594)))
 (let (($x7661 (<= (+ A_2 (* (- 1.0) S_4) (* (- 2.0) A_0) L_0 S_1 S_0 B) 0.0)))
 (let (($x6912 (<= (+ A_2 (* (- 1.0) S_4) (* (- 1.0) A_0) S_1) 0.0)))
 (let ((?x1451 (* (/ 1.0 2.0) L_0)))
 (let ((?x1450 (* (- (/ 1.0 2.0)) A_0)))
 (let ((?x1449 (* (- (/ 1.0 2.0)) S_4)))
 (let ((?x3071 (* (/ 1.0 2.0) A_2)))
 (let (($x5371 (<= (+ ?x3071 ?x1449 ?x1450 ?x1451 S_1 ?x3579 ?x3576) 0.0)))
 (let (($x4861 (<= (+ A_3 A_0 ?x813 ?x1454 (* (- 1.0) A_2)) 0.0)))
 (let ((?x11987 (* (/ 1.0 3.0) A_2)))
 (let ((?x11932 (* (- (/ 1.0 3.0)) B)))
 (let ((?x5339 (* (- (/ 2.0 3.0)) L_0)))
 (let ((?x3019 (* (/ 2.0 3.0) A_0)))
 (let ((?x4706 (* (/ 1.0 3.0) S_4)))
 (let ((?x17553 (* (- (/ 1.0 3.0)) A_3)))
 (let (($x38445 (<= (+ ?x17553 ?x4706 ?x3019 ?x5339 ?x1446 ?x11932 ?x11987) 0.0)))
 (let ((?x9416 (* (/ 2.0 3.0) A_2)))
 (let ((?x12161 (* (- (/ 2.0 3.0)) B)))
 (let ((?x2829 (* (- (/ 1.0 3.0)) L_0)))
 (let ((?x4737 (* (/ 1.0 3.0) A_0)))
 (let ((?x4750 (* (/ 2.0 3.0) S_4)))
 (let ((?x18329 (* (- (/ 2.0 3.0)) A_3)))
 (let (($x38107 (<= (+ ?x18329 ?x4750 ?x4737 ?x1360 ?x2829 ?x12161 ?x9416) 0.0)))
 (let (($x28957 (<= (+ ?x3458 ?x1433 (* (/ 1.0 2.0) A_1) ?x1360 (* (- (/ 1.0 2.0)) B) ?x1365 ?x3071) 0.0)))
 (let (($x22364 (<= (+ ?x3458 ?x1433 (* (/ 1.0 2.0) A_1) ?x1360 (* (/ 1.0 2.0) S_0) ?x1450 ?x3071) 0.0)))
 (let (($x70114 (<= (+ ?x1449 (* (/ 1.0 2.0) S_1)) (- 5.0))))
 (let (($x2381 (<= (+ A_3 (* (- 1.0) S_4) (* (- 1.0) A_1) S_1) 0.0)))
 (let (($x139593 (or $x2381 (not (<= (+ A_3 (* (- 1.0) A_2)) 5.0)) (<= (+ A_3 (* (- 1.0) S_4) S_1 B (* (- 1.0) A_2)) (- 5.0)) $x70114)))
 (let (($x69485 (<= (+ (* (/ 1.0 2.0) A_1) ?x1449 (* (/ 1.0 2.0) S_0) ?x3579 ?x1450) (- 5.0))))
 (let ((?x834 (* (- 1.0) A_2)))
 (let ((?x910 (* (- 1.0) A_0)))
 (let ((?x3311 (* 2.0 B)))
 (let ((?x1730 (* (- 1.0) S_4)))
 (let (($x68911 (<= (+ A_3 ?x1730 A_1 S_0 ?x3311 ?x910 ?x834) (- 5.0))))
 (let (($x68202 (<= (+ A_3 ?x1730 A_0 ?x813 B (* (- 1.0) A_1)) (- 5.0))))
 (let (($x68195 (<= (+ A_3 ?x1730 A_1 ?x813 B ?x834) (- 5.0))))
 (let (($x66712 (<= (+ (* (- (/ 1.0 3.0)) S_4) ?x4737 ?x2829) (- 5.0))))
 (let (($x65926 (<= (+ A_3 ?x1730 A_0 ?x813 B ?x834) (- 10.0))))
 (let (($x8195 (<= (+ A_2 ?x1730 ?x813) (- 5.0))))
 (let (($x7322 (<= (+ (* (/ 1.0 2.0) A_1) ?x1449 ?x1365) (- 5.0))))
 (let (($x74882 (or $x2462 $x3109 $x7322 $x8195 (<= (+ A_2 ?x1730 ?x910 S_0 B) (- 5.0)) $x65926 $x66712 $x68195 $x68202 $x68911 $x69485 (<= (+ ?x3071 ?x1449 ?x1382 ?x1365 ?x3579 ?x3576) (- 5.0)))))
 (let ((?x1113 (+ A_1 ?x834)))
 (let (($x4393 (<= ?x1113 (- 5.0))))
 (let (($x66644 (not $x4393)))
 (let (($x26773 (<= (+ A_1 S_4 (* (- 1.0) A_4) (* (- 2.0) S_3) S_0 ?x910 A_3) 0.0)))
 (let (($x17753 (<= (+ ?x3071 ?x1433 (* (- (/ 1.0 2.0)) A_4) ?x1360 ?x1382 ?x1365 ?x3576 (* (/ 1.0 2.0) A_3)) 0.0)))
 (let (($x15284 (<= (+ ?x4750 ?x4737 ?x2829 (* (- (/ 2.0 3.0)) A_4) ?x1360 ?x12161 (* (/ 2.0 3.0) A_3)) 0.0)))
 (let ((?x3577 (* (/ 1.0 2.0) A_3)))
 (let ((?x2703 (* (- (/ 1.0 2.0)) B)))
 (let ((?x10029 (* (- (/ 1.0 2.0)) A_4)))
 (let ((?x3572 (* (/ 1.0 2.0) A_1)))
 (let (($x73762 (or $x2436 $x3293 (<= (+ ?x3572 ?x1433 ?x10029 ?x1360 ?x1365 ?x2703 ?x3577) 0.0) $x15284 $x17753 $x26773)))
 (let (($x12131 (<= (+ ?x9416 ?x4706 ?x1360 ?x3019 ?x5339 (* (/ 2.0 3.0) B) (* (- (/ 2.0 3.0)) A_1)) 0.0)))
 (let (($x1319 (<= (+ ?x1433 ?x1382 ?x1365 ?x1360) 0.0)))
 (let (($x36369 (or $x1319 $x2436 $x3293 (<= (+ (* (/ 2.0 3.0) A_1) ?x4706 ?x1360 ?x5339) 0.0) $x12131 (<= (+ A_1 ?x1433 (* (- (/ 3.0 2.0)) S_3) S_0 B ?x910) 0.0))))
 (let (($x13026 (<= (+ S_4 (* (- 1.0) A_4) ?x1360 A_0 ?x1446 ?x813 ?x853 A_3) 0.0)))
 (let (($x2662 (<= (+ ?x1382 ?x2558 ?x1365) (- 5.0))))
 (let (($x1943 (<= (+ S_4 (* (- 1.0) A_4) A_1 ?x1446) 0.0)))
 (let (($x18260 (<= (+ S_4 ?x1360 ?x3315 (* (- 2.0) S_2) (* (- 2.0) L_0)) 0.0)))
 (let (($x61761 (<= (+ A_0 ?x813 ?x1446) (- 5.0))))
 (let (($x1915 (<= (+ A_2 S_4 (* (- 1.0) A_4) ?x1360) 0.0)))
 (let (($x24435 (<= (+ (* (- 1.0) A_1) ?x1730 (* 2.0 S_2) ?x1454 ?x853 A_0) 0.0)))
 (let (($x5490 (<= (+ (* (- (/ 2.0 3.0)) S_4) (* (- (/ 1.0 3.0)) A_0) (* (/ 1.0 3.0) L_0) S_2) 0.0)))
 (let (($x3975 (<= (+ A_3 ?x1730 S_2 B ?x834) 0.0)))
 (let (($x7946 (<= (+ A_2 ?x1730 (* (- 1.0) A_1) (* 2.0 S_1) L_0 ?x910) 0.0)))
 (let (($x4838 (<= (+ A_3 ?x1730 ?x910 L_0 (* 2.0 S_1) B ?x834) 0.0)))
 (let (($x3176 (<= (+ A_1 ?x1360 ?x813) (- 5.0))))
 (let (($x676 (<= (+ A_2 ?x1360 A_0 ?x813 B (* (- 1.0) A_1)) (- 5.0))))
 (let (($x72898 (or $x676 $x2436 $x2662 $x3176 $x3293 (<= (+ A_1 ?x1360 S_0 B ?x910) (- 5.0)))))
 (let (($x62915 (<= (+ A_3 ?x834) 5.0)))
 (let (($x136908 (or (<= (+ (* 2.0 A_2) ?x1730 (* (- 2.0) A_1) S_1) 0.0) $x62915 $x70114)))
 (let (($x8282 (<= (+ (* (- (/ 1.0 3.0)) A_2) ?x4706 ?x3019 ?x1446 ?x5339 ?x11932 (* (/ 1.0 3.0) A_1)) 0.0)))
 (let ((?x3117 (* (- 2.0) L_0)))
 (let ((?x1732 (* (- 2.0) S_2)))
 (let ((?x2574 (* 3.0 A_0)))
 (let (($x17134 (<= (+ ?x834 S_4 ?x2574 ?x1732 ?x3117 ?x1454 ?x853) 0.0)))
 (let ((?x1697 (* (- 2.0) S_3)))
 (let ((?x2877 (* (- 2.0) A_4)))
 (let ((?x2516 (* 2.0 S_4)))
 (let (($x2181 (<= (+ A_3 ?x1730 ?x834 S_2) 0.0)))
 (let (($x74456 (or $x2181 (<= (+ (* (- (/ 1.0 2.0)) A_2) ?x1449 ?x1450 S_2 ?x1451 ?x2703 ?x3572) 0.0))))
 (let (($x45140 (<= (+ (* (- (/ 1.0 2.0)) A_2) (* (/ 1.0 2.0) S_3) ?x1382 ?x1446 ?x1365 ?x2703 ?x3572) 0.0)))
 (let (($x16777 (<= (+ S_4 (* (- 1.0) A_4) ?x3315 (* (- 3.0) S_2) ?x3117 ?x853 A_3) 0.0)))
 (let (($x45953 (or $x2459 $x3100 (<= (+ ?x843 S_4 ?x3315 ?x3117 (* (- 3.0) S_2) ?x853 A_2) 0.0))))
 (let (($x3255 (<= (+ ?x3458 ?x1382 (* (/ 1.0 2.0) S_3) ?x1365 ?x1446 ?x2703 ?x3071) 0.0)))
 (let (($x2562 (<= (+ ?x1450 ?x2558 ?x1451 S_1) 0.0)))
 (let (($x70577 (or $x2436 $x2562 (<= (+ A_2 ?x1360 S_1 B (* (- 1.0) A_1)) 0.0) $x3293)))
 (let ((?x2974 (* (- 2.0) A_1)))
 (let ((?x2978 (* (- 2.0) S_4)))
 (let ((?x2017 (* 2.0 A_3)))
 (let (($x42350 (or $x2462 $x3109 $x3975 $x5490 (<= (+ ?x2017 ?x2978 A_0 ?x813 S_2 ?x3311 ?x2974) 0.0))))
 (let (($x8851 (<= (+ ?x3576 ?x1449 S_2 ?x1451) 0.0)))
 (let (($x70181 (or $x2462 $x3109 $x3975 (<= (+ ?x1382 ?x1451 (* (/ 1.0 2.0) S_2) (* (- 1.0) A_1)) 0.0) $x8851)))
 (let (($x2908 (<= (+ (* 3.0 S_4) ?x2877 (* 2.0 A_1) (* (- 3.0) S_3)) 0.0)))
 (let (($x17664 (<= (+ ?x834 S_4 (* (- 1.0) A_4) A_0 ?x1446 ?x853 A_3) 0.0)))
 (let (($x17748 (<= (+ (* (- (/ 1.0 2.0)) A_2) ?x1433 ?x10029 ?x1382 ?x1446 ?x1365 ?x853 ?x3572 ?x3577) 0.0)))
 (let ((?x5109 (* (- 2.0) B)))
 (let ((?x879 (* (- 1.0) A_4)))
 (let (($x19408 (<= (+ ?x834 S_4 ?x879 ?x3315 ?x1446 ?x813 ?x1454 ?x5109 A_3) 0.0)))
 (let (($x12735 (<= (+ (* (- (/ 1.0 2.0)) A_2) ?x1433 A_0 ?x1446 ?x1365) 0.0)))
 (let (($x41 (>= A_1 A_0)))
 (let (($x42 (>= A_2 A_1)))
 (let (($x43 (>= A_3 A_2)))
 (let (($x44 (>= A_4 A_3)))
 (and $x44 $x43 $x42 $x41 (or $x1915 (<= (+ S_4 ?x879 ?x1450 ?x2558 ?x1451 ?x853 A_1) 0.0)) (or (<= (+ S_4 ?x879 A_1 ?x1360) (- 5.0)) $x1915 $x2662) (or $x1915 $x2662 $x2860) (or $x2244 $x61761) (or $x1943 $x61761) (or $x1943 (<= (+ ?x843 S_4 A_0 ?x1446) 0.0)) (or $x1943 (<= (+ ?x3458 ?x1433 ?x1382 ?x1446 ?x1365 ?x2703 ?x3572) 0.0)) (or $x1448 $x2459 $x3100) (or $x2459 $x3100 $x61761) (or $x2459 $x3100 $x8282) (or $x2459 $x3100 $x12735) (or $x2459 $x3100 $x17748) (or $x2459 $x3100 $x19408) (or $x2459 $x3100 $x17134) (or $x1943 $x16777) (or $x1943 $x19408) (or $x1943 $x17748) (or $x2459 $x3100 $x17664) (or $x2459 $x3100 (<= (+ ?x3458 ?x1433 ?x1382 ?x1446 ?x1365 ?x2703 ?x3572) 0.0)) (or $x2459 $x3100 (<= (+ ?x843 S_4 A_0 ?x1446) 0.0)) (or $x2459 $x3100 $x9066) (or $x1943 $x17664) (or $x1943 (<= (+ ?x1433 ?x1382 ?x1365 ?x10029 ?x1446 ?x2703 ?x3071) 0.0)) (or $x1319 $x1915 $x2860) (or $x1943 $x18260) (or $x1943 $x9066) (or $x1943 (<= (+ ?x834 S_3 ?x3315 ?x1446 ?x813 ?x1454 ?x853) 0.0)) (or $x1943 $x13026) (or $x2459 $x3100 (<= (+ ?x834 S_3 ?x3315 ?x1446 ?x813 ?x1454 ?x853) 0.0)) (or $x1915 $x2562) (or $x2459 $x3100 (<= (+ ?x1433 ?x1382 ?x1365 ?x10029 ?x1446 ?x2703 ?x3071) 0.0)) (or $x2381 $x3975 $x5490) (or $x1943 (<= (+ S_3 ?x3315 (* (- 3.0) S_2) ?x3117) 0.0)) (or $x2355 $x2562) (or $x2244 (<= (+ ?x843 S_4 A_0 ?x1446) 0.0)) (or $x2181 $x5490) (or $x1319 $x2459 $x3100 $x13952) (or $x2244 (<= (+ ?x3458 ?x1433 ?x1382 ?x1446 ?x1365 ?x2703 ?x3572) 0.0)) (or $x1319 $x2436 $x2860 $x3293 $x12131) (or $x1319 $x1915 $x2908) (or $x2355 (<= (+ ?x1360 S_1) (- 5.0))) $x70181 (or $x2181 $x8851) (or $x1448 $x1943) (or $x2355 (<= (+ ?x3458 ?x1433 ?x1360 (* (/ 1.0 2.0) S_1) ?x2703 ?x3071) 0.0)) $x42350 $x70577 (or $x2459 $x3100 $x3255) (or $x1943 (<= (+ ?x834 S_3 A_0 ?x1732 ?x813 ?x853 A_1) 0.0)) (or $x2181 (<= (+ ?x1730 S_2) (- 5.0))) (or $x2181 (<= (+ ?x1730 ?x910 S_2 L_0 S_1) 0.0)) (or $x1943 $x12735) (or $x2181 $x24435) (or $x2244 $x3255) (or $x2381 $x4387 $x4838 $x7946) (or $x2355 (<= (+ ?x1433 (* (- (/ 3.0 2.0)) S_3) S_1) 0.0)) (or $x2459 $x2562 $x3100 $x13952) $x45953 (or $x2244 (<= (+ ?x834 S_3 A_0 ?x1732 ?x813 ?x853 A_1) 0.0)) (or $x1943 $x17134) (or $x2459 $x3100 (<= (+ ?x3019 ?x5339 (* (/ 1.0 3.0) S_3) ?x1446) 0.0)) (or $x2462 $x3109 $x3975 (<= (+ ?x1730 S_2) (- 5.0)) $x68202) (or $x2459 $x3100 $x16777) (or $x1915 $x2768) (or $x2459 $x3100 $x45140) (or $x2244 (<= (+ ?x3019 ?x5339 (* (/ 1.0 3.0) S_3) ?x1446) 0.0)) (or $x2355 (<= (+ ?x1433 ?x10029 ?x1360 (* (/ 1.0 2.0) S_1) ?x2703 ?x3577) 0.0)) (or $x1943 $x8282) (or $x1915 $x2860 $x41812) (or $x2381 $x3975 $x24435) $x74456 (or $x2244 $x13914) (or $x2436 $x2768 $x2815 $x3293) (or $x1915 $x2860 $x38107) (or $x676 $x2436 $x2662 $x2860 $x3293) (or $x1915 $x15284 (<= (+ A_1 ?x2516 ?x2877 ?x1697 ?x853 A_3) 0.0)) (or $x2381 $x3975 $x8851) (or $x2244 (<= (+ ?x834 S_3 ?x3315 ?x1446 ?x813 ?x1454 ?x853) 0.0)) (or $x2244 $x17134) (or $x2244 $x8282) (or $x1319 $x2355 $x2860) (or $x2355 $x2662 $x2860) (or $x2355 $x2860 $x61761) (or $x2381 $x3975 (<= (+ ?x1730 S_2) (- 5.0))) (or $x1915 $x2860 (<= (+ ?x843 S_4 A_0 ?x1446) 0.0)) (or $x1448 $x1915 $x2860) $x136908 (or $x1943 $x2562 $x13952) $x72898 (or $x2462 $x3109 $x4387 $x4838 $x6594 $x7946) (or $x2462 $x3109 $x3975 (not $x5490) $x24435) (or $x2436 $x2860 $x3293 $x61761) (or $x1915 $x2860 $x61761) (or $x1943 $x38445) (or $x2244 $x38445) (or $x1915 $x2860 $x37629) (or $x2355 $x2860 $x41812) (or $x2355 $x2860 $x38107) (or $x1319 $x1943 $x13952) (or $x1319 $x2244) (or $x2459 $x3100 $x13914) (or $x2459 $x3100 $x18260) (or $x1943 $x13914) (or $x1943 $x2662 $x13952) (or $x1943 $x13952 $x41812) (or $x1943 $x13952 $x37629) (or $x2459 $x3100 $x13026) (or $x2381 $x4387 $x4846 $x5371 $x6912 $x7661) (or $x1448 $x2244) $x36369 (or $x2244 $x2562 $x13952) (or $x2244 $x13952 $x37629) (or $x2244 $x2768 $x13952) (or $x1943 $x2768 $x13952) (or $x2244 $x2662 $x13952) (or $x2244 $x13952 $x41812) (or $x2459 $x3100 $x13952 $x41812) (or $x2459 $x3100 $x13952 $x37629) (or $x2381 $x4393 (<= (+ A_2 ?x1730 (* (- 1.0) A_1) S_1) (- 5.0))) (or $x2436 $x2815 $x2860 $x3293 $x38107) (or $x1915 $x2860 $x38445) (or $x1915 $x2860 $x13914) $x73762 (or $x2462 $x3109 $x7322 $x65926 $x66644 $x66712 $x68195 $x68911 $x69485) $x74882 $x139593 (or $x2436 $x2815 $x3293 $x22364 $x28957 $x38107) (or $x2244 $x12735) (or $x2355 $x2860 (<= (+ ?x843 S_4 A_0 ?x1446) 0.0)) (or $x2355 $x2860 $x38445) (or $x2436 $x2860 $x3293 $x38445) (or $x2436 $x2860 $x3293 (<= (+ ?x843 S_4 A_0 ?x1446) 0.0)) (or $x2459 $x2662 $x3100 $x13952) (or $x4387 $x4861 $x5371 $x6912 $x7661) $x141077 (or $x2436 $x2815 $x2860 $x3293 $x41812) (or $x2244 $x9066) (or $x2459 $x2768 $x3100 $x13952) (or $x2436 $x2815 $x2860 $x3293 $x37629) (or $x2436 $x2860 $x3293 $x13914) (or $x1448 $x2436 $x2860 $x3293) (or $x1448 $x2355 $x2860) $x842 (<= (+ ?x910 L_0 S_0) 0.0) (<= (+ ?x1360 S_2) 0.0) (<= (+ S_4 ?x879 L_0) 0.0) (<= (+ ?x834 S_2 L_0) 0.0) (<= (+ ?x1730 S_3) 0.0) (<= (+ ?x843 S_3 L_0) 0.0) $x2580 (<= (+ (* (- 1.0) A_1) S_1 L_0) 0.0) $x2176 (<= (+ ?x1446 S_1) 0.0) (<= (+ ?x1454 S_0) 0.0) $x5045 $x1961 $x4966 $x2272)))))))))))))))))))))))))))))))))))))))))))))))))))))))))))))))))))))))))))))))))))))))))))))))))))))))))))))))))))))))))))))))))))))))))))))))))))))))
(check-sat)
